Medium-instances_NetworkFacilityLocation/2023-03-27_20hr-25min-09sec/Nodes30_Arcs45_LocNodes22/Formulation-2Instance-3.lp
\ Model LocPrice
\ LP format - for model browsing. Use MPS format to capture full model detail.
Maximize
  - 184 x[2] - 166 x[3] - 176 x[4] - 160 x[5] - 173 x[6] - 152 x[7]
   - 175 x[8] - 176 x[9] - 166 x[10] - 175 x[11] - 158 x[12] - 195 x[15]
   - 164 x[16] - 190 x[17] - 182 x[18] - 185 x[19] - 153 x[21] - 186 x[23]
   - 181 x[25] - 153 x[26] - 163 x[28] - 195 x[30] - 3.978096249429636 Q[2]
   - 3.707370163099431 Q[3] - 3.192404039712973 Q[4]
   - 4.419122009926649 Q[5] - 4.583241200130129 Q[6]
   - 3.088623000674799 Q[7] - 4.251845498520286 Q[8]
   - 3.499724596558057 Q[9] - 3.854512483239446 Q[10]
   - 4.581026994523535 Q[11] - 4.063203378394162 Q[12]
   - 3.026074864190052 Q[15] - 3.039750107390605 Q[16]
   - 3.780836061037872 Q[17] - 4.790604057087445 Q[18]
   - 3.463107456404202 Q[19] - 3.888704259090522 Q[21]
   - 3.288146011257178 Q[23] - 4.619371881775834 Q[25]
   - 3.764323751995756 Q[26] - 3.713851145875183 Q[28]
   - 3.513707598361429 Q[30] - 2.360140521933386 f[2,1]
   - 2.835175060941663 f[3,2] - 1.548915210767565 f[4,3]
   - 0.8405654816206345 f[5,2] - 2.728740089164268 f[6,2]
   - 2.598598571505567 f[7,5] - 1.46740071907243 f[8,6]
   - 2.610749951460943 f[9,5] - 1.168495886616659 f[10,2]
   - 0.0786048838181739 f[11,9] - 0.2824303646130398 f[12,6]
   - 1.421258927301527 f[13,2] - 0.8176516594717272 f[14,2]
   - 0.0436458011416195 f[15,6] - 0.5825885509933414 f[16,11]
   - 2.33598635081117 f[17,7] - 0.5520339437063468 f[18,15]
   - 0.6186311694476604 f[19,1] - 2.720665696838939 f[20,9]
   - 0.3453469030627463 f[21,11] - 1.116621553891557 f[22,21]
   - 0.3522631402763162 f[23,6] - 2.046181106513457 f[24,19]
   - 0.0601994650277928 f[25,2] - 2.533659531713353 f[26,9]
   - 0.4076006268861251 f[27,20] - 2.566978165646781 f[28,16]
   - 1.731740845386549 f[29,27] - 1.158012668496804 f[30,22]
   - 2.862814903866458 f[5,16] - 2.834519401526158 f[8,9]
   - 2.792676137551351 f[7,27] - 2.23501980851155 f[9,3]
   - 2.87103223870619 f[23,11] - 2.650926300969571 f[13,8]
   - 0.2602121593912309 f[15,11] - 2.514364912235467 f[10,18]
   - 1.92966102341176 f[11,8] - 1.944775413336428 f[15,25]
   - 1.298737667451124 f[13,6] - 0.4710366717212044 f[13,21]
   - 0.1316549648338192 f[19,2] - 1.32801661163589 f[21,16]
   - 0.4292279754066822 f[5,18] - 1.625641935212405 f[17,3] + 1337 D[1]
   + 1487 D[2] + 1371 D[3] + 1451 D[4] + 1321 D[5] + 1382 D[9] + 1370 D[11]
   + 1354 D[16] + 1342 D[17] + 1378 D[18] + 1461 D[20] + 1344 D[22]
   + 1441 D[25] + 1457 D[26] + 1359 D[28] - 1.481741571135836 S[4]
   - 1.39641558815923 S[6] - 1.298070576340555 S[7]
   - 1.96400788432082 S[14] - 1.41197052859552 S[15]
   - 1.497464099610661 S[18] - 1.846702538108844 S[19]
   - 1.07713697560304 S[21] - 1.101919993008207 S[22]
   - 1.974105512406798 S[23] - 1.679549140370442 S[24]
   - 1.364455587636439 S[26] - 1.979246723649093 S[27]
   - 1.500178423510174 S[29] - 1.454468609096985 S[30] + [
   - 3.343495502078643 f[2,1] ^2 - 1.746196149662713 f[3,2] ^2
   - 0.1989803290082435 f[4,3] ^2 - 3.215001154057791 f[5,2] ^2
   - 1.014014978767243 f[6,2] ^2 - 0.7281099950132113 f[7,5] ^2
   - 0.9347611634737865 f[8,6] ^2 - 2.174350213638242 f[9,5] ^2
   - 3.851488486754952 f[10,2] ^2 - 1.136962661638769 f[11,9] ^2
   - 1.825580867506168 f[12,6] ^2 - 2.451816142592483 f[13,2] ^2
   - 3.903266883147971 f[14,2] ^2 - 3.813706693200697 f[15,6] ^2
   - 1.597966243760188 f[16,11] ^2 - 1.49148548982958 f[17,7] ^2
   - 1.715912845346552 f[18,15] ^2 - 0.4434124741944112 f[19,1] ^2
   - 3.320627579326229 f[20,9] ^2 - 3.553829920075995 f[21,11] ^2
   - 1.502326878666107 f[22,21] ^2 - 2.901149306176124 f[23,6] ^2
   - 2.966718578295705 f[24,19] ^2 - 1.759592380211994 f[25,2] ^2
   - 3.423029288640095 f[26,9] ^2 - 3.915203397581291 f[27,20] ^2
   - 3.837364713993801 f[28,16] ^2 - 1.739737347300359 f[29,27] ^2
   - 0.7326390391558197 f[30,22] ^2 - 0.5619323335581048 f[5,16] ^2
   - 1.322764338577434 f[8,9] ^2 - 1.05957640186687 f[7,27] ^2
   - 0.3799129477278522 f[9,3] ^2 - 2.436393468059559 f[23,11] ^2
   - 0.5603706355100404 f[13,8] ^2 - 2.942903208187997 f[15,11] ^2
   - 2.874584420250301 f[10,18] ^2 - 3.813464712402402 f[11,8] ^2
   - 2.994133223116888 f[15,25] ^2 - 1.795777770671676 f[13,6] ^2
   - 0.2608445800106867 f[13,21] ^2 - 1.109605716056957 f[19,2] ^2
   - 3.862677181206668 f[21,16] ^2 - 3.168454846178749 f[5,18] ^2
   - 1.803915865720383 f[17,3] ^2 - 7.566721344723086 D[1] ^2
   - 6.860562775181524 D[2] ^2 - 7.961572283609823 D[3] ^2
   - 7.56680964911981 D[4] ^2 - 6.753717205471633 D[5] ^2
   - 6.971150755558815 D[9] ^2 - 6.957712548774181 D[11] ^2
   - 7.141140581245812 D[16] ^2 - 6.26848615998991 D[17] ^2
   - 6.436815008300847 D[18] ^2 - 6.659163450459218 D[20] ^2
   - 7.035719921993604 D[22] ^2 - 6.340490560691361 D[25] ^2
   - 7.808313329208566 D[26] ^2 - 6.333162043474433 D[28] ^2
   - 0.4375809353502895 S[4] ^2 - 1.102781083033594 S[6] ^2
   - 0.6295612255577425 S[7] ^2 - 1.338385671392701 S[14] ^2
   - 0.5066894104024007 S[15] ^2 - 1.341328329209589 S[18] ^2
   - 0.8542603739105548 S[19] ^2 - 0.7307879996100588 S[21] ^2
   - 0.2164621800788842 S[22] ^2 - 0.2839376158994842 S[23] ^2
   - 0.732980591199297 S[24] ^2 - 1.889246000253324 S[26] ^2
   - 1.162099239153344 S[27] ^2 - 0.2505587293466616 S[29] ^2
   - 1.072412281873141 S[30] ^2 ] / 2 
Subject To
 R0: Q[2] + Q[3] + Q[4] + Q[5] + Q[6] + Q[7] + Q[8] + Q[9] + Q[10] + Q[11]
   + Q[12] + Q[15] + Q[16] + Q[17] + Q[18] + Q[19] + Q[21] + Q[23] + Q[25]
   + Q[26] + Q[28] + Q[30] <= 1925
 R1: - 188 x[2] + Q[2] <= 0
 R2: - 146 x[3] + Q[3] <= 0
 R3: - 142 x[4] + Q[4] <= 0
 R4: - 124 x[5] + Q[5] <= 0
 R5: - 183 x[6] + Q[6] <= 0
 R6: - 115 x[7] + Q[7] <= 0
 R7: - 134 x[8] + Q[8] <= 0
 R8: - 106 x[9] + Q[9] <= 0
 R9: - 151 x[10] + Q[10] <= 0
 R10: - 160 x[11] + Q[11] <= 0
 R11: - 154 x[12] + Q[12] <= 0
 R12: - 154 x[15] + Q[15] <= 0
 R13: - 119 x[16] + Q[16] <= 0
 R14: - 137 x[17] + Q[17] <= 0
 R15: - 133 x[18] + Q[18] <= 0
 R16: - 168 x[19] + Q[19] <= 0
 R17: - 127 x[21] + Q[21] <= 0
 R18: - 162 x[23] + Q[23] <= 0
 R19: - 145 x[25] + Q[25] <= 0
 R20: - 196 x[26] + Q[26] <= 0
 R21: - 167 x[28] + Q[28] <= 0
 R22: - 118 x[30] + Q[30] <= 0
 node[8]: - Q[8] + f[8,6] + f[8,9] - f[13,8] - f[11,8] = 0
 node[10]: - Q[10] + f[10,2] + f[10,18] = 0
 node[12]: - Q[12] + f[12,6] = 0
 node[6]: - Q[6] + f[6,2] - f[8,6] - f[12,6] - f[15,6] - f[23,6] - f[13,6]
   - S[6] = 0
 node[7]: - Q[7] + f[7,5] - f[17,7] + f[7,27] - S[7] = 0
 node[15]: - Q[15] + f[15,6] - f[18,15] + f[15,11] + f[15,25] - S[15] = 0
 node[19]: - Q[19] + f[19,1] - f[24,19] + f[19,2] - S[19] = 0
 node[21]: - Q[21] + f[21,11] - f[22,21] - f[13,21] + f[21,16] - S[21] = 0
 node[23]: - Q[23] + f[23,6] + f[23,11] - S[23] = 0
 node[30]: - Q[30] + f[30,22] - S[30] = 0
 node[2]: - Q[2] + f[2,1] - f[3,2] - f[5,2] - f[6,2] - f[10,2] - f[13,2]
   - f[14,2] - f[25,2] - f[19,2] + D[2] = 0
 node[3]: - Q[3] + f[3,2] - f[4,3] - f[9,3] - f[17,3] + D[3] = 0
 node[5]: - Q[5] + f[5,2] - f[7,5] - f[9,5] + f[5,16] + f[5,18] + D[5] = 0
 node[9]: - Q[9] + f[9,5] - f[11,9] - f[20,9] - f[26,9] - f[8,9] + f[9,3]
   + D[9] = 0
 node[11]: - Q[11] + f[11,9] - f[16,11] - f[21,11] - f[23,11] - f[15,11]
   + f[11,8] + D[11] = 0
 node[16]: - Q[16] + f[16,11] - f[28,16] - f[5,16] - f[21,16] + D[16] = 0
 node[17]: - Q[17] + f[17,7] + f[17,3] + D[17] = 0
 node[25]: - Q[25] + f[25,2] - f[15,25] + D[25] = 0
 node[28]: - Q[28] + f[28,16] + D[28] = 0
 node[18]: - Q[18] + f[18,15] - f[10,18] - f[5,18] + D[18] - S[18] = 0
 node[26]: - Q[26] + f[26,9] + D[26] - S[26] = 0
 node[4]: - Q[4] + f[4,3] + D[4] - S[4] = 0
 node[13]: f[13,2] + f[13,8] + f[13,6] + f[13,21] = 0
 node[24]: f[24,19] - S[24] = 0
 node[27]: f[27,20] - f[29,27] - f[7,27] - S[27] = 0
 node[29]: f[29,27] - S[29] = 0
 node[14]: f[14,2] - S[14] = 0
 node[1]: - f[2,1] - f[19,1] + D[1] = 0
 node[20]: f[20,9] - f[27,20] + D[20] = 0
 node[22]: f[22,21] - f[30,22] + D[22] - S[22] = 0
 Cost_Flow[2,1]: - pi[1] + pi[2] + 1.671747751039322 f[2,1] - mu_f[2,1]
   = -2.360140521933386
 Cost_Flow[3,2]: - pi[2] + pi[3] + 0.8730980748313564 f[3,2] - mu_f[3,2]
   = -2.835175060941663
 Cost_Flow[4,3]: - pi[3] + pi[4] + 0.0994901645041217 f[4,3] - mu_f[4,3]
   = -1.548915210767565
 Cost_Flow[5,2]: - pi[2] + pi[5] + 1.607500577028895 f[5,2] - mu_f[5,2]
   = -0.8405654816206345
 Cost_Flow[6,2]: - pi[2] + pi[6] + 0.5070074893836214 f[6,2] - mu_f[6,2]
   = -2.728740089164268
 Cost_Flow[7,5]: - pi[5] + pi[7] + 0.3640549975066056 f[7,5] - mu_f[7,5]
   = -2.598598571505567
 Cost_Flow[8,6]: - pi[6] + pi[8] + 0.4673805817368932 f[8,6] - mu_f[8,6]
   = -1.46740071907243
 Cost_Flow[9,5]: - pi[5] + pi[9] + 1.087175106819121 f[9,5] - mu_f[9,5]
   = -2.610749951460943
 Cost_Flow[10,2]: - pi[2] + pi[10] + 1.925744243377476 f[10,2] - mu_f[10,2]
   = -1.168495886616659
 Cost_Flow[11,9]: - pi[9] + pi[11] + 0.5684813308193843 f[11,9]
   - mu_f[11,9] = -0.0786048838181739
 Cost_Flow[12,6]: - pi[6] + pi[12] + 0.9127904337530839 f[12,6]
   - mu_f[12,6] = -0.2824303646130398
 Cost_Flow[13,2]: - pi[2] + pi[13] + 1.225908071296241 f[13,2] - mu_f[13,2]
   = -1.421258927301527
 Cost_Flow[14,2]: - pi[2] + pi[14] + 1.951633441573986 f[14,2] - mu_f[14,2]
   = -0.8176516594717272
 Cost_Flow[15,6]: - pi[6] + pi[15] + 1.906853346600348 f[15,6] - mu_f[15,6]
   = -0.0436458011416195
 Cost_Flow[16,11]: - pi[11] + pi[16] + 0.7989831218800938 f[16,11]
   - mu_f[16,11] = -0.5825885509933414
 Cost_Flow[17,7]: - pi[7] + pi[17] + 0.7457427449147902 f[17,7]
   - mu_f[17,7] = -2.33598635081117
 Cost_Flow[18,15]: - pi[15] + pi[18] + 0.8579564226732759 f[18,15]
   - mu_f[18,15] = -0.5520339437063468
 Cost_Flow[19,1]: - pi[1] + pi[19] + 0.2217062370972056 f[19,1]
   - mu_f[19,1] = -0.6186311694476604
 Cost_Flow[20,9]: - pi[9] + pi[20] + 1.660313789663115 f[20,9] - mu_f[20,9]
   = -2.720665696838939
 Cost_Flow[21,11]: - pi[11] + pi[21] + 1.776914960037997 f[21,11]
   - mu_f[21,11] = -0.3453469030627463
 Cost_Flow[22,21]: - pi[21] + pi[22] + 0.7511634393330535 f[22,21]
   - mu_f[22,21] = -1.116621553891557
 Cost_Flow[23,6]: - pi[6] + pi[23] + 1.450574653088062 f[23,6] - mu_f[23,6]
   = -0.3522631402763162
 Cost_Flow[24,19]: - pi[19] + pi[24] + 1.483359289147853 f[24,19]
   - mu_f[24,19] = -2.046181106513457
 Cost_Flow[25,2]: - pi[2] + pi[25] + 0.879796190105997 f[25,2] - mu_f[25,2]
   = -0.0601994650277928
 Cost_Flow[26,9]: - pi[9] + pi[26] + 1.711514644320048 f[26,9] - mu_f[26,9]
   = -2.533659531713353
 Cost_Flow[27,20]: - pi[20] + pi[27] + 1.957601698790646 f[27,20]
   - mu_f[27,20] = -0.4076006268861251
 Cost_Flow[28,16]: - pi[16] + pi[28] + 1.9186823569969 f[28,16]
   - mu_f[28,16] = -2.566978165646781
 Cost_Flow[29,27]: - pi[27] + pi[29] + 0.8698686736501797 f[29,27]
   - mu_f[29,27] = -1.731740845386549
 Cost_Flow[30,22]: - pi[22] + pi[30] + 0.3663195195779099 f[30,22]
   - mu_f[30,22] = -1.158012668496804
 Cost_Flow[5,16]: pi[5] - pi[16] + 0.2809661667790524 f[5,16] - mu_f[5,16]
   = -2.862814903866458
 Cost_Flow[8,9]: pi[8] - pi[9] + 0.6613821692887172 f[8,9] - mu_f[8,9]
   = -2.834519401526158
 Cost_Flow[7,27]: pi[7] - pi[27] + 0.5297882009334349 f[7,27] - mu_f[7,27]
   = -2.792676137551351
 Cost_Flow[9,3]: - pi[3] + pi[9] + 0.1899564738639261 f[9,3] - mu_f[9,3]
   = -2.23501980851155
 Cost_Flow[23,11]: - pi[11] + pi[23] + 1.21819673402978 f[23,11]
   - mu_f[23,11] = -2.87103223870619
 Cost_Flow[13,8]: - pi[8] + pi[13] + 0.2801853177550202 f[13,8]
   - mu_f[13,8] = -2.650926300969571
 Cost_Flow[15,11]: - pi[11] + pi[15] + 1.471451604093999 f[15,11]
   - mu_f[15,11] = -0.2602121593912309
 Cost_Flow[10,18]: pi[10] - pi[18] + 1.437292210125151 f[10,18]
   - mu_f[10,18] = -2.514364912235467
 Cost_Flow[11,8]: - pi[8] + pi[11] + 1.906732356201201 f[11,8] - mu_f[11,8]
   = -1.92966102341176
 Cost_Flow[15,25]: pi[15] - pi[25] + 1.497066611558444 f[15,25]
   - mu_f[15,25] = -1.944775413336428
 Cost_Flow[13,6]: - pi[6] + pi[13] + 0.897888885335838 f[13,6] - mu_f[13,6]
   = -1.298737667451124
 Cost_Flow[13,21]: pi[13] - pi[21] + 0.1304222900053433 f[13,21]
   - mu_f[13,21] = -0.4710366717212044
 Cost_Flow[19,2]: - pi[2] + pi[19] + 0.5548028580284787 f[19,2]
   - mu_f[19,2] = -0.1316549648338192
 Cost_Flow[21,16]: - pi[16] + pi[21] + 1.931338590603334 f[21,16]
   - mu_f[21,16] = -1.32801661163589
 Cost_Flow[5,18]: pi[5] - pi[18] + 1.584227423089374 f[5,18] - mu_f[5,18]
   = -0.4292279754066822
 Cost_Flow[17,3]: - pi[3] + pi[17] + 0.9019579328601914 f[17,3]
   - mu_f[17,3] = -1.625641935212405
 Cost_Demand[1]: pi[1] + 3.783360672361543 D[1] - mu_D[1] = 1337
 Cost_Demand[2]: pi[2] + 3.430281387590762 D[2] - mu_D[2] = 1487
 Cost_Demand[3]: pi[3] + 3.980786141804912 D[3] - mu_D[3] = 1371
 Cost_Demand[4]: pi[4] + 3.783404824559905 D[4] - mu_D[4] = 1451
 Cost_Demand[5]: pi[5] + 3.376858602735816 D[5] - mu_D[5] = 1321
 Cost_Demand[9]: pi[9] + 3.485575377779408 D[9] - mu_D[9] = 1382
 Cost_Demand[11]: pi[11] + 3.47885627438709 D[11] - mu_D[11] = 1370
 Cost_Demand[16]: pi[16] + 3.570570290622906 D[16] - mu_D[16] = 1354
 Cost_Demand[17]: pi[17] + 3.134243079994955 D[17] - mu_D[17] = 1342
 Cost_Demand[18]: pi[18] + 3.218407504150424 D[18] - mu_D[18] = 1378
 Cost_Demand[20]: pi[20] + 3.329581725229609 D[20] - mu_D[20] = 1461
 Cost_Demand[22]: pi[22] + 3.517859960996802 D[22] - mu_D[22] = 1344
 Cost_Demand[25]: pi[25] + 3.17024528034568 D[25] - mu_D[25] = 1441
 Cost_Demand[26]: pi[26] + 3.904156664604283 D[26] - mu_D[26] = 1457
 Cost_Demand[28]: pi[28] + 3.166581021737216 D[28] - mu_D[28] = 1359
 Cost_Supply[4]: - pi[4] + 0.2187904676751448 S[4] - mu_S[4]
   = -1.481741571135836
 Cost_Supply[6]: - pi[6] + 0.5513905415167969 S[6] - mu_S[6]
   = -1.39641558815923
 Cost_Supply[7]: - pi[7] + 0.3147806127788713 S[7] - mu_S[7]
   = -1.298070576340555
 Cost_Supply[14]: - pi[14] + 0.6691928356963507 S[14] - mu_S[14]
   = -1.96400788432082
 Cost_Supply[15]: - pi[15] + 0.2533447052012003 S[15] - mu_S[15]
   = -1.41197052859552
 Cost_Supply[18]: - pi[18] + 0.6706641646047946 S[18] - mu_S[18]
   = -1.497464099610661
 Cost_Supply[19]: - pi[19] + 0.4271301869552774 S[19] - mu_S[19]
   = -1.846702538108844
 Cost_Supply[21]: - pi[21] + 0.3653939998050294 S[21] - mu_S[21]
   = -1.07713697560304
 Cost_Supply[22]: - pi[22] + 0.1082310900394421 S[22] - mu_S[22]
   = -1.101919993008207
 Cost_Supply[23]: - pi[23] + 0.1419688079497421 S[23] - mu_S[23]
   = -1.974105512406798
 Cost_Supply[24]: - pi[24] + 0.3664902955996485 S[24] - mu_S[24]
   = -1.679549140370442
 Cost_Supply[26]: - pi[26] + 0.944623000126662 S[26] - mu_S[26]
   = -1.364455587636439
 Cost_Supply[27]: - pi[27] + 0.5810496195766719 S[27] - mu_S[27]
   = -1.979246723649093
 Cost_Supply[29]: - pi[29] + 0.1252793646733308 S[29] - mu_S[29]
   = -1.500178423510174
 Cost_Supply[30]: - pi[30] + 0.5362061409365707 S[30] - mu_S[30]
   = -1.454468609096985
Bounds
Binaries
 x[2] x[3] x[4] x[5] x[6] x[7] x[8] x[9] x[10] x[11] x[12] x[15] x[16]
 x[17] x[18] x[19] x[21] x[23] x[25] x[26] x[28] x[30]
SOS
 s0:  S1 :: f[2,1]:1 mu_f[2,1]:2
 s1:  S1 :: f[3,2]:1 mu_f[3,2]:2
 s2:  S1 :: f[4,3]:1 mu_f[4,3]:2
 s3:  S1 :: f[5,2]:1 mu_f[5,2]:2
 s4:  S1 :: f[6,2]:1 mu_f[6,2]:2
 s5:  S1 :: f[7,5]:1 mu_f[7,5]:2
 s6:  S1 :: f[8,6]:1 mu_f[8,6]:2
 s7:  S1 :: f[9,5]:1 mu_f[9,5]:2
 s8:  S1 :: f[10,2]:1 mu_f[10,2]:2
 s9:  S1 :: f[11,9]:1 mu_f[11,9]:2
 s10:  S1 :: f[12,6]:1 mu_f[12,6]:2
 s11:  S1 :: f[13,2]:1 mu_f[13,2]:2
 s12:  S1 :: f[14,2]:1 mu_f[14,2]:2
 s13:  S1 :: f[15,6]:1 mu_f[15,6]:2
 s14:  S1 :: f[16,11]:1 mu_f[16,11]:2
 s15:  S1 :: f[17,7]:1 mu_f[17,7]:2
 s16:  S1 :: f[18,15]:1 mu_f[18,15]:2
 s17:  S1 :: f[19,1]:1 mu_f[19,1]:2
 s18:  S1 :: f[20,9]:1 mu_f[20,9]:2
 s19:  S1 :: f[21,11]:1 mu_f[21,11]:2
 s20:  S1 :: f[22,21]:1 mu_f[22,21]:2
 s21:  S1 :: f[23,6]:1 mu_f[23,6]:2
 s22:  S1 :: f[24,19]:1 mu_f[24,19]:2
 s23:  S1 :: f[25,2]:1 mu_f[25,2]:2
 s24:  S1 :: f[26,9]:1 mu_f[26,9]:2
 s25:  S1 :: f[27,20]:1 mu_f[27,20]:2
 s26:  S1 :: f[28,16]:1 mu_f[28,16]:2
 s27:  S1 :: f[29,27]:1 mu_f[29,27]:2
 s28:  S1 :: f[30,22]:1 mu_f[30,22]:2
 s29:  S1 :: f[5,16]:1 mu_f[5,16]:2
 s30:  S1 :: f[8,9]:1 mu_f[8,9]:2
 s31:  S1 :: f[7,27]:1 mu_f[7,27]:2
 s32:  S1 :: f[9,3]:1 mu_f[9,3]:2
 s33:  S1 :: f[23,11]:1 mu_f[23,11]:2
 s34:  S1 :: f[13,8]:1 mu_f[13,8]:2
 s35:  S1 :: f[15,11]:1 mu_f[15,11]:2
 s36:  S1 :: f[10,18]:1 mu_f[10,18]:2
 s37:  S1 :: f[11,8]:1 mu_f[11,8]:2
 s38:  S1 :: f[15,25]:1 mu_f[15,25]:2
 s39:  S1 :: f[13,6]:1 mu_f[13,6]:2
 s40:  S1 :: f[13,21]:1 mu_f[13,21]:2
 s41:  S1 :: f[19,2]:1 mu_f[19,2]:2
 s42:  S1 :: f[21,16]:1 mu_f[21,16]:2
 s43:  S1 :: f[5,18]:1 mu_f[5,18]:2
 s44:  S1 :: f[17,3]:1 mu_f[17,3]:2
 s45:  S1 :: D[1]:1 mu_D[1]:2
 s46:  S1 :: D[2]:1 mu_D[2]:2
 s47:  S1 :: D[3]:1 mu_D[3]:2
 s48:  S1 :: D[4]:1 mu_D[4]:2
 s49:  S1 :: D[5]:1 mu_D[5]:2
 s50:  S1 :: D[9]:1 mu_D[9]:2
 s51:  S1 :: D[11]:1 mu_D[11]:2
 s52:  S1 :: D[16]:1 mu_D[16]:2
 s53:  S1 :: D[17]:1 mu_D[17]:2
 s54:  S1 :: D[18]:1 mu_D[18]:2
 s55:  S1 :: D[20]:1 mu_D[20]:2
 s56:  S1 :: D[22]:1 mu_D[22]:2
 s57:  S1 :: D[25]:1 mu_D[25]:2
 s58:  S1 :: D[26]:1 mu_D[26]:2
 s59:  S1 :: D[28]:1 mu_D[28]:2
 s60:  S1 :: S[4]:1 mu_S[4]:2
 s61:  S1 :: S[6]:1 mu_S[6]:2
 s62:  S1 :: S[7]:1 mu_S[7]:2
 s63:  S1 :: S[14]:1 mu_S[14]:2
 s64:  S1 :: S[15]:1 mu_S[15]:2
 s65:  S1 :: S[18]:1 mu_S[18]:2
 s66:  S1 :: S[19]:1 mu_S[19]:2
 s67:  S1 :: S[21]:1 mu_S[21]:2
 s68:  S1 :: S[22]:1 mu_S[22]:2
 s69:  S1 :: S[23]:1 mu_S[23]:2
 s70:  S1 :: S[24]:1 mu_S[24]:2
 s71:  S1 :: S[26]:1 mu_S[26]:2
 s72:  S1 :: S[27]:1 mu_S[27]:2
 s73:  S1 :: S[29]:1 mu_S[29]:2
 s74:  S1 :: S[30]:1 mu_S[30]:2
End
