Medium-instances_NetworkFacilityLocation/2023-03-27_20hr-25min-09sec/Nodes30_Arcs45_LocNodes22/Formulation-2Instance-3.log

Gurobi 9.5.2 (win64) logging started Mon Mar 27 20:27:20 2023

Set parameter LogFile to value "2023-03-27_20hr-25min-09sec/Nodes30_Arcs45_LocNodes22/Formulation-2Instance-3.log"
Set parameter TimeLimit to value 600
Set parameter IntFeasTol to value 1e-09
Set parameter DualReductions to value 0
Set parameter NonConvex to value 2
Gurobi Optimizer version 9.5.2 build v9.5.2rc0 (win64)
Thread count: 4 physical cores, 8 logical processors, using up to 8 threads
Optimize a model with 128 rows, 224 columns and 478 nonzeros
Model fingerprint: 0xca44bf08
Model has 75 quadratic objective terms
Model has 75 SOS constraints
Variable types: 202 continuous, 22 integer (22 binary)
Coefficient statistics:
  Matrix range     [1e-01, 2e+02]
  Objective range  [4e-02, 1e+03]
  QObjective range [2e-01, 8e+00]
  Bounds range     [1e+00, 1e+00]
  RHS range        [4e-02, 2e+03]
Presolve removed 7 rows and 10 columns
Presolve time: 0.00s
Presolved: 121 rows, 214 columns, 459 nonzeros
Presolved model has 71 SOS constraint(s)
Presolved model has 71 quadratic objective terms
Variable types: 192 continuous, 22 integer (22 binary)

Root relaxation: objective 5.478874e+05, 282 iterations, 0.00 seconds (0.00 work units)

    Nodes    |    Current Node    |     Objective Bounds      |     Work
 Expl Unexpl |  Obj  Depth IntInf | Incumbent    BestBd   Gap | It/Node Time

     0     0 547887.431    0    9          - 547887.431      -     -    0s
H    0     0                    543567.37041 547887.431  0.79%     -    0s
H    0     0                    546788.60922 547870.898  0.20%     -    0s
     0     0 547579.478    0    9 546788.609 547579.478  0.14%     -    0s
     0     0 547411.667    0   10 546788.609 547411.667  0.11%     -    0s
H    0     0                    546912.16929 547411.667  0.09%     -    0s

Cutting planes:
  Flow cover: 3

Explored 1 nodes (294 simplex iterations) in 0.06 seconds (0.02 work units)
Thread count was 8 (of 8 available processors)

Solution count 3: 546912 546789 543567 

Optimal solution found (tolerance 1.00e-04)
Best objective 5.469121692907e+05, best bound 5.469121692907e+05, gap 0.0000%

User-callback calls 229, time in user-callback 0.00 sec
